
Gurobi 7.0.2 (linux64, Java) logging started jeu. 16 mars 2017 17:02:34 CET


Gurobi 7.0.2 (linux64, Java) logging started jeu. 16 mars 2017 17:03:32 CET


Gurobi 7.0.2 (linux64, Java) logging started jeu. 16 mars 2017 17:03:45 CET


Gurobi 7.0.2 (linux64, Java) logging started jeu. 16 mars 2017 17:04:04 CET


Gurobi 7.0.2 (linux64, Java) logging started jeu. 16 mars 2017 17:05:44 CET


Gurobi 7.0.2 (linux64, Java) logging started jeu. 16 mars 2017 17:05:59 CET


Gurobi 7.0.2 (linux64, Java) logging started jeu. 16 mars 2017 17:09:20 CET


Gurobi 7.0.2 (linux64, Java) logging started jeu. 16 mars 2017 17:10:11 CET


Gurobi 7.0.2 (linux64, Java) logging started jeu. 16 mars 2017 17:14:40 CET


Gurobi 7.0.2 (linux64, Java) logging started Thu Mar 16 17:15:10 2017


Gurobi 7.0.2 (linux64, Java) logging started jeu. 16 mars 2017 17:15:35 CET


Gurobi 7.0.2 (linux64, Java) logging started jeu. 16 mars 2017 17:19:10 CET

Optimize a model with 2 rows, 3 columns and 5 nonzeros
Variable types: 0 continuous, 3 integer (3 binary)
Coefficient statistics:
  Matrix range     [1e+00, 3e+00]
  Objective range  [1e+00, 2e+00]
  Bounds range     [1e+00, 1e+00]
  RHS range        [1e+00, 4e+00]
Presolve removed 2 rows and 3 columns
Presolve time: 0.04s
Presolve: All rows and columns removed

Explored 0 nodes (0 simplex iterations) in 0.05 seconds
Thread count was 1 (of 4 available processors)

Solution count 1: 3 
Pool objective bound 3

Optimal solution found (tolerance 1.00e-04)
Best objective 3.000000000000e+00, best bound 3.000000000000e+00, gap 0.0000%
